L=18;
no=8;
njo=[9,8,7,8,8,7,9,9];
djo=[10,13,12,10,14,10,13,11];
trab=[4,2,2,3,3,6,6,2,6,3,6,3,2,3,3,4,3,18,12,12,6,2,12,3,12,2,2,4,6,18,18,3,3,3,2,4,2,2,3,3,6,6,3,3,4,6,2,12,3,6,6,6,12,6,3,3,6,3,6,12,12,6,3,3,2,2,3,2,3,6,12,3,12,3,2,6,3,12,6,6,3,18,6,3,2,3,3,18,6,6,3,6,2];
nprec=17;
prec=[| 1, 12,
      | 4, 15,
      | 11, 21,
      | 17, 24,
      | 21, 25,
      | 24, 27,
      | 26, 34,
      | 27, 37,
      | 30, 39,
      | 34, 41,
      | 35, 43,
      | 38, 44,
      | 46, 50,
      | 47, 55,
      | 50, 57,
      | 51, 58,
      | 54, 65 |];


%%%%%%%%%%%%%%%%%%%%%%%%%%%%%%%%%%%%%%%%%%%%%%%%%%%%%%%%%%%%%%%%%%%%%%
%  8
%
%  9   1   9  10  37
%  4   2   2   3   3   6   6   2   6   3 
%  1   1   1   0   1
%      2   3  12
%  1   2   2   0   0
%  1   3   3   0   0
%  1   4   4   0   1
%      2   6  15
%  1   5   5   0   0
%  1   6   6   0   0
%  1   7   7   0   0
%  1   8   8   0   0
%  1   9   9   0   0
%
%  8  10  17  13  86
%  6   3   2   3   3   4   3  18  12  12   6   2  12 
%  2   1  10   0   0
%  2   2  11   0   1
%      3   4  21
%  2   3  12   1   0
%      1   1   1
%  2   4  13   0   0
%  2   5  14   0   0
%  2   6  15   1   0
%      1   4   4
%  2   7  16   0   0
%  2   8  17   0   1
%      3   7  24
%
%  7  18  24  12  76
%  3  12   2   2   4   6  18  18   3   3   3   2 
%  3   1  18   0   0
%  3   2  19   0   0
%  3   3  20   0   0
%  3   4  21   1   1
%      2   2  11
%      4   1  25
%  3   5  22   0   0
%  3   6  23   0   0
%  3   7  24   1   1
%      2   8  17
%      4   3  27
%
%  8  25  32  10  36
%  4   2   2   3   3   6   6   3   3   4 
%  4   1  25   1   0
%      3   4  21
%  4   2  26   0   1
%      5   2  34
%  4   3  27   1   1
%      3   7  24
%      5   5  37
%  4   4  28   0   0
%  4   5  29   0   0
%  4   6  30   0   1
%      5   7  39
%  4   7  31   0   0
%  4   8  32   0   0
%
%  8  33  40  14  80
%  6   2  12   3   6   6   6  12   6   3   3   6   3   6 
%  5   1  33   0   0
%  5   2  34   1   1
%      4   2  26
%      6   1  41
%  5   3  35   0   1
%      6   3  43
%  5   4  36   0   0
%  5   5  37   1   0
%      4   3  27
%  5   6  38   0   1
%      6   4  44
%  5   7  39   1   0
%      4   6  30
%  5   8  40   0   0
%
%  7  41  47  10  48
% 12  12   6   3   3   2   2   3   2   3 
%  6   1  41   1   0
%      5   2  34
%  6   2  42   0   0
%  6   3  43   1   0
%      5   3  35
%  6   4  44   1   0
%      5   6  38
%  6   5  45   0   0
%  6   6  46   0   1
%      7   3  50
%  6   7  47   0   1
%      7   8  55
%
%  9  48  56  13  92
%  6  12   3  12   3   2   6   3  12   6   6   3  18 
%  7   1  48   0   0
%  7   2  49   0   0
%  7   3  50   1   1
%      6   6  46
%      8   1  57
%  7   4  51   0   1
%      8   2  58
%  7   5  52   0   0
%  7   6  53   0   0
%  7   7  54   0   1
%      8   9  65
%  7   8  55   1   0
%      6   7  47
%  7   9  56   0   0
%
%  9  57  65  11  58
%  6   3   2   3   3  18   6   6   3   6   2 
%  8   1  57   1   0
%      7   3  50
%  8   2  58   1   0
%      7   4  51
%  8   3  59   0   0
%  8   4  60   0   0
%  8   5  61   0   0
%  8   6  62   0   0
%  8   7  63   0   0
%  8   8  64   0   0
%  8   9  65   1   0
%      7   7  54
%
%298
